55166
24, 38, 8, 44, 32, 41, 13, 43, 3, 6, 28, 26, 55, 49, 21, 29, 22, 10, 16, 39, 46, 36, 15, 52, 42, 33, 1, 27, 31, 25, 11, 45, 2, 14, 9, 12, 18, 4, 30, 47, 54, 34, 53, 23, 17, 48, 19, 5, 35, 37, 51, 40, 7, 20, 50
